RT is False
Default write of storage_offers_DA.csv just to have a file (but constraint should be inactive)
Reading model...
...model read.
creating competitive generators file...
...competitive generators recorded.
Loading data...
.. day-ahead data read.
Compiling instance...
...instance created.
Creating Offer Mitigation (model will solve as dispatch if TRUE)...
NOTE: storage offers will not be mitigated
...storage offer mitigation file created
Converting model to MPEC...
...converted
NOTE: initial MIP solve with only storage competitive to get feasible solution
Solving...

Welcome to IBM(R) ILOG(R) CPLEX(R) Interactive Optimizer 12.9.0.0
  with Simplex, Mixed Integer & Barrier Optimizers
5725-A06 5725-A29 5724-Y48 5724-Y49 5724-Y54 5724-Y55 5655-Y21
Copyright IBM Corp. 1988, 2019.  All Rights Reserved.

Type 'help' for a list of available commands.
Type 'help' followed by a command name for more
information on commands.

CPLEX> Logfile 'cplex.log' closed.
Logfile 'C:\Users\llavin\Desktop\test919\logs\tmpx3kr1k7y.cplex.log' open.
CPLEX> New value for parallel optimization mode: -1
CPLEX> New value for mixed integer optimality gap tolerance: 0.01
CPLEX> New value for integrality tolerance: 1e-09
CPLEX> New value for feasibility tolerance: 0.01
CPLEX> New value for deterministic time limit in ticks: 75000
CPLEX> Problem 'C:\Users\llavin\Desktop\test919\logs\tmpg3a531af.pyomo.lp' read.
Read time = 0.25 sec. (14.73 ticks)
CPLEX> Problem name         : C:\Users\llavin\Desktop\test919\logs\tmpg3a531af.pyomo.lp
Objective sense      : Maximize
Variables            :   53805  [Nneg: 1,  Box: 22000,  Free: 4464,
                                 Binary: 27340]
Objective nonzeros   :    9020
Linear constraints   :  123205  [Less: 41346,  Greater: 59096,  Equal: 22763]
  Nonzeros           :  291744
  RHS nonzeros       :   67482

Variables            : Min LB: -5000.000        Max UB: 1000000.       
Objective nonzeros   : Min   : 0.1000000        Max   : 2500.000       
Linear constraints   :
  Nonzeros           : Min   : 0.1000000        Max   : 1000000.       
  RHS nonzeros       : Min   : 0.1000000        Max   : 1000000.       
CPLEX> CPXPARAM_Parallel                                -1
CPXPARAM_Simplex_Tolerances_Feasibility          0.01
CPXPARAM_DetTimeLimit                            75000
CPXPARAM_MIP_Tolerances_MIPGap                   0.01
CPXPARAM_MIP_Tolerances_Integrality              1.0000000000000001e-09
Tried aggregator 3 times.
MIP Presolve eliminated 88788 rows and 19106 columns.
MIP Presolve added 3366 rows and 0 columns.
MIP Presolve modified 24772 coefficients.
Aggregator did 12954 substitutions.
Reduced MIP has 24829 rows, 21183 columns, and 70850 nonzeros.
Reduced MIP has 8367 binaries, 0 generals, 0 SOSs, and 0 indicators.
Presolve time = 0.28 sec. (176.04 ticks)
Probing fixed 364 vars, tightened 2787 bounds.
Probing time = 1.17 sec. (853.31 ticks)
Tried aggregator 2 times.
MIP Presolve eliminated 819 rows and 728 columns.
MIP Presolve modified 2204 coefficients.
Aggregator did 44 substitutions.
Reduced MIP has 23966 rows, 20411 columns, and 68352 nonzeros.
Reduced MIP has 8003 binaries, 0 generals, 0 SOSs, and 0 indicators.
Presolve time = 0.09 sec. (70.44 ticks)
Probing time = 0.03 sec. (16.11 ticks)
Clique table members: 6259.
MIP emphasis: balance optimality and feasibility.
MIP search method: dynamic search.
Parallel mode: opportunistic, using up to 32 threads.
Root relaxation solution time = 0.38 sec. (301.16 ticks)

        Nodes                                         Cuts/
   Node  Left     Objective  IInf  Best Integer    Best Bound    ItCnt     Gap

      0     0     3945.5541  1891                   3945.5541     7134         
      0     0     3944.0424    21                    Cuts: 32     7146         
      0     0     3944.0424    18                    Cuts: 17     7150         
      0     0     3944.0424    17                    Cuts: 15     7151         
      0     5    infeasible                           Cuts: 3     7600         
Elapsed time = 8.59 sec. (5371.63 ticks, tree = 0.02 MB, solutions = 1)
*     1+    5                         3842.8250     3891.7773             1.27%

Clique cuts applied:  1
Cover cuts applied:  1
Implied bound cuts applied:  1
Flow cuts applied:  5
Gomory fractional cuts applied:  4

Root node processing (before b&c):
  Real time             =    7.61 sec. (5363.17 ticks)
Parallel b&c, 32 threads:
  Real time             =    1.30 sec. (225.25 ticks)
  Sync time (average)   =    0.64 sec.
  Wait time (average)   =    0.00 sec.
                          ------------
Total (root+branch&cut) =    8.91 sec. (5588.42 ticks)

Solution pool: 1 solution saved.

MIP - Integer optimal, tolerance (0.01/1e-06):  Objective =  3.8428250409e+03
Current MIP best bound =  3.8632648285e+03 (gap = 20.4398, 0.53%)
Solution time =    8.92 sec.  Iterations = 7623  Nodes = 34 (2)
Deterministic time = 5588.58 ticks  (626.38 ticks/sec)

CPLEX> Incumbent solution written to file 'C:\Users\llavin\Desktop\test919\logs\tmpp3memdet.cplex.sol'.
CPLEX> NOTE: no warmstart specified for MIP iteration, default behavior is true
NOTE: resolving with all competitive generators using storage-only solution to warmstart
Solving...

Welcome to IBM(R) ILOG(R) CPLEX(R) Interactive Optimizer 12.9.0.0
  with Simplex, Mixed Integer & Barrier Optimizers
5725-A06 5725-A29 5724-Y48 5724-Y49 5724-Y54 5724-Y55 5655-Y21
Copyright IBM Corp. 1988, 2019.  All Rights Reserved.

Type 'help' for a list of available commands.
Type 'help' followed by a command name for more
information on commands.

CPLEX> Logfile 'cplex.log' closed.
Logfile 'C:\Users\llavin\Desktop\test919\logs\tmp0oo4_n9y.cplex.log' open.
CPLEX> New value for parallel optimization mode: -1
CPLEX> New value for mixed integer optimality gap tolerance: 0.01
CPLEX> New value for integrality tolerance: 1e-09
CPLEX> New value for feasibility tolerance: 0.01
CPLEX> New value for deterministic time limit in ticks: 75000
CPLEX> Problem 'C:\Users\llavin\Desktop\test919\logs\tmpsgp_t80r.pyomo.lp' read.
Read time = 0.25 sec. (14.75 ticks)
CPLEX> MIP start file 'C:\Users\llavin\Desktop\test919\logs\tmpqxi09cak.cplex.mst' read.
CPLEX> Problem name         : C:\Users\llavin\Desktop\test919\logs\tmpsgp_t80r.pyomo.lp
Objective sense      : Maximize
Variables            :   54525  [Nneg: 1,  Box: 22720,  Free: 4464,
                                 Binary: 27340]
Objective nonzeros   :    9716
Linear constraints   :  123205  [Less: 41346,  Greater: 59096,  Equal: 22763]
  Nonzeros           :  291744
  RHS nonzeros       :   67482

Variables            : Min LB: -5000.000        Max UB: 1000000.       
Objective nonzeros   : Min   : 0.1000000        Max   : 2500.000       
Linear constraints   :
  Nonzeros           : Min   : 0.1000000        Max   : 1000000.       
  RHS nonzeros       : Min   : 0.1000000        Max   : 1000000.       
CPLEX> CPXPARAM_Parallel                                -1
CPXPARAM_Simplex_Tolerances_Feasibility          0.01
CPXPARAM_DetTimeLimit                            75000
CPXPARAM_MIP_Tolerances_MIPGap                   0.01
CPXPARAM_MIP_Tolerances_Integrality              1.0000000000000001e-09
Warning:  No solution found from 1 MIP starts.
Retaining values of one MIP start for possible repair.
Tried aggregator 3 times.
MIP Presolve eliminated 88788 rows and 19826 columns.
MIP Presolve added 3366 rows and 0 columns.
MIP Presolve modified 24772 coefficients.
Aggregator did 12954 substitutions.
Reduced MIP has 24829 rows, 21183 columns, and 70850 nonzeros.
Reduced MIP has 8367 binaries, 0 generals, 0 SOSs, and 0 indicators.
Presolve time = 0.30 sec. (176.40 ticks)
Probing fixed 364 vars, tightened 2787 bounds.
Probing time = 1.17 sec. (853.31 ticks)
Tried aggregator 2 times.
MIP Presolve eliminated 819 rows and 728 columns.
MIP Presolve modified 2204 coefficients.
Aggregator did 44 substitutions.
Reduced MIP has 23966 rows, 20411 columns, and 68352 nonzeros.
Reduced MIP has 8003 binaries, 0 generals, 0 SOSs, and 0 indicators.
Presolve time = 0.11 sec. (70.44 ticks)
Probing time = 0.05 sec. (16.11 ticks)
Clique table members: 6259.
MIP emphasis: balance optimality and feasibility.
MIP search method: dynamic search.
Parallel mode: opportunistic, using up to 32 threads.
Root relaxation solution time = 0.47 sec. (344.00 ticks)

        Nodes                                         Cuts/
   Node  Left     Objective  IInf  Best Integer    Best Bound    ItCnt     Gap

      0     0    13220.7161  1836                  13220.7161     7777         
      0     0    13220.7161   605                   Cuts: 832     8125         
      0     0    13220.6121   503                   Cuts: 518     8335         
      0     0    13220.6121   419                   Cuts: 329     8473         
      0     0    13220.6121   370                   Cuts: 163     8537         
      0     0    13220.6121   326                   Cuts: 153     8598         
      0     0    13220.6121   301                    Cuts: 89     8625         
      0     0    13220.6121   293                    Cuts: 58     8639         
      0     0    13220.6121   285                    Cuts: 39     8645         
      0     0    13220.6121   283                    Cuts: 33     8647         
      0     0    13219.0444    14                    Fract: 1     8648         
      0     0    13219.0444    11                    Cuts: 27     8651         
Repair heuristic found nothing.
*     0     1      integral     0    13117.0457    13219.0444     8660    0.78%
      0     1    13117.0457     0    13117.0457    13219.0444     8660    0.78%
Elapsed time = 10.23 sec. (6488.04 ticks, tree = 0.02 MB, solutions = 1)

Clique cuts applied:  28
Cover cuts applied:  1
Implied bound cuts applied:  16
Flow cuts applied:  341
Mixed integer rounding cuts applied:  12
Gomory fractional cuts applied:  27

Root node processing (before b&c):
  Real time             =    9.47 sec. (6438.33 ticks)
Parallel b&c, 32 threads:
  Real time             =    0.92 sec. (111.79 ticks)
  Sync time (average)   =    0.19 sec.
  Wait time (average)   =    0.00 sec.
                          ------------
Total (root+branch&cut) =   10.39 sec. (6550.12 ticks)

Solution pool: 1 solution saved.

MIP - Integer optimal, tolerance (0.01/1e-06):  Objective =  1.3117045731e+04
Current MIP best bound =  1.3163224523e+04 (gap = 46.1788, 0.35%)
Solution time =   10.42 sec.  Iterations = 8688  Nodes = 7 (6)
Deterministic time = 6550.28 ticks  (628.50 ticks/sec)

CPLEX> Incumbent solution written to file 'C:\Users\llavin\Desktop\test919\logs\tmpzi1go3ky.cplex.sol'.
CPLEX> Exporting results... 
